
        $ From http://www.csplib.org/Problems/prob009/data/helmut.pdf
        $ Problem number 142
        $ Sequence length : 25
        language ESSENCE' 1.0
        letting sizemaster be 465
        letting sizes be sequence(6,9,13,14,19,21,24,25,31,32,53,56,64,73,74,82,91,111,125,127,137,139,153,173,201)
        